NAME:  test1
TYPE: AGTSP
COMMENT: gtsp tours
DIMENSION:  49
GTSP_SETS: 13
EDGE_WEIGHT_TYPE: EXPLICIT
EDGE_WEIGHT_FORMAT: FULL_MATRIX 
EDGE_WEIGHT_SECTION
999999	0	999999	999999	15192	15192	15192	15184	15189	15189	15189	15181	15171	15171	15163	999999	15197	15197	15197	15189	15203	15203	15203	15195	15212	15212	999999	999999	15188	15188	15188	15180	15175	15175	15167	999999	15197	15197	15197	15189	15180	15180	15172	999999	15175	15175	15167	999999	0
999999	999999	0	999999	15192	15192	15192	999999	15189	15189	15189	999999	15171	15171	15171	15163	15197	15197	15197	999999	15203	15203	15203	999999	15212	15212	15212	999999	15188	15188	15188	999999	15175	15175	15175	15167	15197	15197	15197	999999	15180	15180	15180	15172	15175	15175	15175	15167	0
999999	999999	999999	0	15192	15192	15192	15192	15189	15189	15189	15189	15171	15171	15171	15171	15197	15197	15197	15197	15203	15203	15203	15203	15212	15212	15212	15212	15188	15188	15188	15188	15175	15175	15175	15175	15197	15197	15197	15197	15180	15180	15180	15180	15175	15175	15175	15175	0
0	999999	999999	999999	15192	15192	15184	999999	15189	15189	15181	999999	15171	15163	999999	999999	15197	15197	15189	999999	15203	15203	15195	999999	15212	15212	15212	15204	15188	15188	15180	999999	15175	15167	999999	999999	15197	15197	15189	999999	15180	15172	999999	999999	15175	15167	999999	999999	0
15192	15192	15192	15184	999999	0	999999	999999	15180	15180	15172	999999	15185	15185	15177	999999	15202	15202	15202	15194	15186	15186	15186	15178	15193	15193	15193	15185	15185	15185	15185	15177	15194	15194	15194	15186	15189	15189	15189	15181	15196	15196	15196	15188	15181	15181	15173	999999	0
15192	15192	15192	999999	999999	999999	0	999999	15180	15180	15180	15172	15185	15185	15185	15177	15202	15202	15202	999999	15186	15186	15186	999999	15193	15193	15193	999999	15185	15185	15185	999999	15194	15194	15194	999999	15189	15189	15189	999999	15196	15196	15196	999999	15181	15181	15181	15173	0
15192	15192	15192	15192	999999	999999	999999	0	15180	15180	15180	15180	15185	15185	15185	15185	15202	15202	15202	15202	15186	15186	15186	15186	15193	15193	15193	15193	15185	15185	15185	15185	15194	15194	15194	15194	15189	15189	15189	15189	15196	15196	15196	15196	15181	15181	15181	15181	0
15192	15192	15184	999999	0	999999	999999	999999	15180	15172	999999	999999	15185	15177	999999	999999	15202	15202	15194	999999	15186	15186	15178	999999	15193	15193	15185	999999	15185	15185	15177	999999	15194	15194	15186	999999	15189	15189	15181	999999	15196	15196	15188	999999	15181	15173	999999	999999	0
15189	15189	15189	15181	15180	15180	15172	999999	999999	0	999999	999999	15184	15184	15176	999999	15185	15185	15185	15177	15177	15177	15169	999999	15187	15187	15187	15179	15197	15197	15197	15189	15197	15197	15197	15189	15203	15203	15203	15195	15184	15184	15176	999999	15179	15179	15171	999999	0
15189	15189	15189	999999	15180	15180	15180	15172	999999	999999	0	999999	15184	15184	15184	15176	15185	15185	15185	999999	15177	15177	15177	15169	15187	15187	15187	999999	15197	15197	15197	999999	15197	15197	15197	999999	15203	15203	15203	999999	15184	15184	15184	15176	15179	15179	15179	15171	0
15189	15189	15189	15189	15180	15180	15180	15180	999999	999999	999999	0	15184	15184	15184	15184	15185	15185	15185	15185	15177	15177	15177	15177	15187	15187	15187	15187	15197	15197	15197	15197	15197	15197	15197	15197	15203	15203	15203	15203	15184	15184	15184	15184	15179	15179	15179	15179	0
15189	15189	15181	999999	15180	15172	999999	999999	0	999999	999999	999999	15184	15176	999999	999999	15185	15185	15177	999999	15177	15169	999999	999999	15187	15187	15179	999999	15197	15197	15189	999999	15197	15197	15189	999999	15203	15203	15195	999999	15184	15176	999999	999999	15179	15171	999999	999999	0
15171	15171	15163	999999	15185	15185	15177	999999	15184	15184	15176	999999	999999	0	999999	999999	15196	15196	15196	15188	15197	15197	15197	15189	15207	15207	999999	999999	15183	15183	15175	999999	15177	15177	15169	999999	15193	15193	15193	15185	15182	15182	15174	999999	15169	15169	15161	999999	0
15171	15171	15171	15163	15185	15185	15185	15177	15184	15184	15184	15176	999999	999999	0	999999	15196	15196	15196	999999	15197	15197	15197	999999	15207	15207	15207	999999	15183	15183	15183	15175	15177	15177	15177	15169	15193	15193	15193	999999	15182	15182	15182	15174	15169	15169	15169	15161	0
15171	15171	15171	15171	15185	15185	15185	15185	15184	15184	15184	15184	999999	999999	999999	0	15196	15196	15196	15196	15197	15197	15197	15197	15207	15207	15207	15207	15183	15183	15183	15183	15177	15177	15177	15177	15193	15193	15193	15193	15182	15182	15182	15182	15169	15169	15169	15169	0
15171	15163	999999	999999	15185	15177	999999	999999	15184	15176	999999	999999	0	999999	999999	999999	15196	15196	15188	999999	15197	15197	15189	999999	15207	15207	15207	15199	15183	15175	999999	999999	15177	15169	999999	999999	15193	15193	15185	999999	15182	15174	999999	999999	15169	15161	999999	999999	0
15197	15197	15197	15189	15202	15202	15202	15194	15185	15185	15185	15177	15196	15196	15196	15188	999999	0	999999	999999	15190	15190	15190	15182	15198	15198	15198	15190	15214	15214	999999	999999	15208	15208	999999	999999	15222	15222	999999	999999	15180	15180	15172	999999	15192	15192	15192	15184	0
15197	15197	15197	999999	15202	15202	15202	999999	15185	15185	15185	999999	15196	15196	15196	999999	999999	999999	0	999999	15190	15190	15190	999999	15198	15198	15198	999999	15214	15214	15214	999999	15208	15208	15208	999999	15222	15222	15222	999999	15180	15180	15180	15172	15192	15192	15192	999999	0
15197	15197	15197	15197	15202	15202	15202	15202	15185	15185	15185	15185	15196	15196	15196	15196	999999	999999	999999	0	15190	15190	15190	15190	15198	15198	15198	15198	15214	15214	15214	15214	15208	15208	15208	15208	15222	15222	15222	15222	15180	15180	15180	15180	15192	15192	15192	15192	0
15197	15197	15189	999999	15202	15202	15194	999999	15185	15185	15177	999999	15196	15196	15188	999999	0	999999	999999	999999	15190	15190	15182	999999	15198	15198	15190	999999	15214	15214	15214	15206	15208	15208	15208	15200	15222	15222	15222	15214	15180	15172	999999	999999	15192	15192	15184	999999	0
15203	15203	15203	15195	15186	15186	15186	15178	15177	15177	15169	999999	15197	15197	15197	15189	15190	15190	15190	15182	999999	0	999999	999999	15173	15173	15165	999999	15206	15206	999999	999999	15210	15210	999999	999999	15211	15211	999999	999999	15196	15196	15196	15188	15192	15192	15192	15184	0
15203	15203	15203	999999	15186	15186	15186	999999	15177	15177	15177	15169	15197	15197	15197	999999	15190	15190	15190	999999	999999	999999	0	999999	15173	15173	15173	15165	15206	15206	15206	999999	15210	15210	15210	999999	15211	15211	15211	999999	15196	15196	15196	999999	15192	15192	15192	999999	0
15203	15203	15203	15203	15186	15186	15186	15186	15177	15177	15177	15177	15197	15197	15197	15197	15190	15190	15190	15190	999999	999999	999999	0	15173	15173	15173	15173	15206	15206	15206	15206	15210	15210	15210	15210	15211	15211	15211	15211	15196	15196	15196	15196	15192	15192	15192	15192	0
15203	15203	15195	999999	15186	15186	15178	999999	15177	15169	999999	999999	15197	15197	15189	999999	15190	15190	15182	999999	0	999999	999999	999999	15173	15165	999999	999999	15206	15206	15206	15198	15210	15210	15210	15202	15211	15211	15211	15203	15196	15196	15188	999999	15192	15192	15184	999999	0
15212	15212	999999	999999	15193	15193	15193	15185	15187	15187	15187	15179	15207	15207	999999	999999	15198	15198	15198	15190	15173	15173	15165	999999	999999	0	999999	999999	15214	15214	999999	999999	15219	15219	999999	999999	15217	15217	999999	999999	15206	15206	15206	15198	15201	15201	15201	15193	0
15212	15212	15212	999999	15193	15193	15193	999999	15187	15187	15187	999999	15207	15207	15207	999999	15198	15198	15198	999999	15173	15173	15173	15165	999999	999999	0	999999	15214	15214	15214	999999	15219	15219	15219	999999	15217	15217	15217	999999	15206	15206	15206	999999	15201	15201	15201	999999	0
15212	15212	15212	15212	15193	15193	15193	15193	15187	15187	15187	15187	15207	15207	15207	15207	15198	15198	15198	15198	15173	15173	15173	15173	999999	999999	999999	0	15214	15214	15214	15214	15219	15219	15219	15219	15217	15217	15217	15217	15206	15206	15206	15206	15201	15201	15201	15201	0
15212	15212	15212	15204	15193	15193	15185	999999	15187	15187	15179	999999	15207	15207	15207	15199	15198	15198	15190	999999	15173	15165	999999	999999	0	999999	999999	999999	15214	15214	15214	15206	15219	15219	15219	15211	15217	15217	15217	15209	15206	15206	15198	999999	15201	15201	15193	999999	0
15188	15188	15188	15180	15185	15185	15185	15177	15197	15197	15197	15189	15183	15183	15175	999999	15214	15214	999999	999999	15206	15206	999999	999999	15214	15214	999999	999999	999999	0	999999	999999	15180	15180	15172	999999	15173	15173	15165	999999	15202	15202	15202	15194	15186	15186	15186	15178	0
15188	15188	15188	999999	15185	15185	15185	999999	15197	15197	15197	999999	15183	15183	15183	15175	15214	15214	15214	999999	15206	15206	15206	999999	15214	15214	15214	999999	999999	999999	0	999999	15180	15180	15180	15172	15173	15173	15173	15165	15202	15202	15202	999999	15186	15186	15186	999999	0
15188	15188	15188	15188	15185	15185	15185	15185	15197	15197	15197	15197	15183	15183	15183	15183	15214	15214	15214	15214	15206	15206	15206	15206	15214	15214	15214	15214	999999	999999	999999	0	15180	15180	15180	15180	15173	15173	15173	15173	15202	15202	15202	15202	15186	15186	15186	15186	0
15188	15188	15180	999999	15185	15185	15177	999999	15197	15197	15189	999999	15183	15175	999999	999999	15214	15214	15214	15206	15206	15206	15206	15198	15214	15214	15214	15206	0	999999	999999	999999	15180	15172	999999	999999	15173	15165	999999	999999	15202	15202	15194	999999	15186	15186	15178	999999	0
15175	15175	15167	999999	15194	15194	15194	15186	15197	15197	15197	15189	15177	15177	15169	999999	15208	15208	999999	999999	15210	15210	999999	999999	15219	15219	999999	999999	15180	15180	15172	999999	999999	0	999999	999999	15190	15190	15190	15182	15192	15192	15192	15184	15182	15182	15174	999999	0
15175	15175	15175	15167	15194	15194	15194	999999	15197	15197	15197	999999	15177	15177	15177	15169	15208	15208	15208	999999	15210	15210	15210	999999	15219	15219	15219	999999	15180	15180	15180	15172	999999	999999	0	999999	15190	15190	15190	999999	15192	15192	15192	999999	15182	15182	15182	15174	0
15175	15175	15175	15175	15194	15194	15194	15194	15197	15197	15197	15197	15177	15177	15177	15177	15208	15208	15208	15208	15210	15210	15210	15210	15219	15219	15219	15219	15180	15180	15180	15180	999999	999999	999999	0	15190	15190	15190	15190	15192	15192	15192	15192	15182	15182	15182	15182	0
15175	15167	999999	999999	15194	15194	15186	999999	15197	15197	15189	999999	15177	15169	999999	999999	15208	15208	15208	15200	15210	15210	15210	15202	15219	15219	15219	15211	15180	15172	999999	999999	0	999999	999999	999999	15190	15190	15182	999999	15192	15192	15184	999999	15182	15174	999999	999999	0
15197	15197	15197	15189	15189	15189	15189	15181	15203	15203	15203	15195	15193	15193	15193	15185	15222	15222	999999	999999	15211	15211	999999	999999	15217	15217	999999	999999	15173	15173	15165	999999	15190	15190	15190	15182	999999	0	999999	999999	15211	15211	999999	999999	15195	15195	15195	15187	0
15197	15197	15197	999999	15189	15189	15189	999999	15203	15203	15203	999999	15193	15193	15193	999999	15222	15222	15222	999999	15211	15211	15211	999999	15217	15217	15217	999999	15173	15173	15173	15165	15190	15190	15190	999999	999999	999999	0	999999	15211	15211	15211	999999	15195	15195	15195	999999	0
15197	15197	15197	15197	15189	15189	15189	15189	15203	15203	15203	15203	15193	15193	15193	15193	15222	15222	15222	15222	15211	15211	15211	15211	15217	15217	15217	15217	15173	15173	15173	15173	15190	15190	15190	15190	999999	999999	999999	0	15211	15211	15211	15211	15195	15195	15195	15195	0
15197	15197	15189	999999	15189	15189	15181	999999	15203	15203	15195	999999	15193	15193	15185	999999	15222	15222	15222	15214	15211	15211	15211	15203	15217	15217	15217	15209	15173	15165	999999	999999	15190	15190	15182	999999	0	999999	999999	999999	15211	15211	15211	15203	15195	15195	15187	999999	0
15180	15180	15172	999999	15196	15196	15196	15188	15184	15184	15176	999999	15182	15182	15174	999999	15180	15180	15172	999999	15196	15196	15196	15188	15206	15206	15206	15198	15202	15202	15202	15194	15192	15192	15192	15184	15211	15211	999999	999999	999999	0	999999	999999	15180	15180	15172	999999	0
15180	15180	15180	15172	15196	15196	15196	999999	15184	15184	15184	15176	15182	15182	15182	15174	15180	15180	15180	15172	15196	15196	15196	999999	15206	15206	15206	999999	15202	15202	15202	999999	15192	15192	15192	999999	15211	15211	15211	999999	999999	999999	0	999999	15180	15180	15180	15172	0
15180	15180	15180	15180	15196	15196	15196	15196	15184	15184	15184	15184	15182	15182	15182	15182	15180	15180	15180	15180	15196	15196	15196	15196	15206	15206	15206	15206	15202	15202	15202	15202	15192	15192	15192	15192	15211	15211	15211	15211	999999	999999	999999	0	15180	15180	15180	15180	0
15180	15172	999999	999999	15196	15196	15188	999999	15184	15176	999999	999999	15182	15174	999999	999999	15180	15172	999999	999999	15196	15196	15188	999999	15206	15206	15198	999999	15202	15202	15194	999999	15192	15192	15184	999999	15211	15211	15211	15203	0	999999	999999	999999	15180	15172	999999	999999	0
15175	15175	15167	999999	15181	15181	15173	999999	15179	15179	15171	999999	15169	15169	15161	999999	15192	15192	15192	15184	15192	15192	15192	15184	15201	15201	15201	15193	15186	15186	15186	15178	15182	15182	15174	999999	15195	15195	15195	15187	15180	15180	15172	999999	999999	0	999999	999999	0
15175	15175	15175	15167	15181	15181	15181	15173	15179	15179	15179	15171	15169	15169	15169	15161	15192	15192	15192	999999	15192	15192	15192	999999	15201	15201	15201	999999	15186	15186	15186	999999	15182	15182	15182	15174	15195	15195	15195	999999	15180	15180	15180	15172	999999	999999	0	999999	0
15175	15175	15175	15175	15181	15181	15181	15181	15179	15179	15179	15179	15169	15169	15169	15169	15192	15192	15192	15192	15192	15192	15192	15192	15201	15201	15201	15201	15186	15186	15186	15186	15182	15182	15182	15182	15195	15195	15195	15195	15180	15180	15180	15180	999999	999999	999999	0	0
15175	15167	999999	999999	15181	15173	999999	999999	15179	15171	999999	999999	15169	15161	999999	999999	15192	15192	15184	999999	15192	15192	15184	999999	15201	15201	15193	999999	15186	15186	15178	999999	15182	15174	999999	999999	15195	15195	15187	999999	15180	15172	999999	999999	0	999999	999999	999999	0
15155	999999	999999	999999	15155	999999	999999	999999	15155	999999	999999	999999	15155	999999	999999	999999	15155	999999	999999	999999	15155	999999	999999	999999	15155	999999	999999	999999	15155	999999	999999	999999	15155	999999	999999	999999	15155	999999	999999	999999	15155	999999	999999	999999	15155	999999	999999	999999	999999
GTSP_SET_SECTION:
1 1 2 3 4 -1
2 5 6 7 8 -1
3 9 10 11 12 -1
4 13 14 15 16 -1
5 17 18 19 20 -1
6 21 22 23 24 -1
7 25 26 27 28 -1
8 29 30 31 32 -1
9 33 34 35 36 -1
10 37 38 39 40 -1
11 41 42 43 44 -1
12 45 46 47 48 -1
13 49 -1
EOF